Maximize 
 obj: t
Subject To
 t - a - 3b + c <= 0
 t + a + 3b - c <= 0
 t - 2a - 5b + c <= 0
 t + 2a + 5b - c <= 0
 t - 3a - 7b + c <= 0
 t + 3a + 7b - c <= 0
 t - 5a - 11b + c <= 0
 t + 5a + 11b - c <= 0
 t - 7a - 14b + c <= 0
 t + 7a + 14b - c <= 0
 t - 8a - 15b + c <= 0
 t + 8a + 15b - c <= 0
 t - 10a - 19b + c <= 0
 t + 10a + 19b - c <= 0
Bounds
End
